   Maximize
    obj:  10 x1 + 7 x2 + 9 x3 + 14.5 x4 + 13.5 x5 + 16 x6 + 5 x7 + 9 x8 + 6 x9 + x10 + x11
 
    Subject To
    x1 + x4 + x7 <= 250
    x2 + x5 + x8 <= 310
    x3 + x6 + x9 <= 390
    x1 + x2 + x3 <= 360
    x4 + x5 + x6 <= 400
    x7 + x8 + x9 <= 500
    x9 + x10 + x11 <= 650

    x1 => 0
    x2 => 0
    x3 => 0
    x4 => 0
    x5 => 0
    x6 => 0
    x7 => 0
    x8 => 0
    x9 => 0
    x10 => 0
    x11 => 0

	End
	